Instance: E101-08e.dat
Class:  2
100 --- number of customers (no depot)
21 --- number of vehicles
212 --- number of items
Capacity - height - width of vehicles
   200     40     20
Node - x - y - demand  Readytime Duetime
  0.00   35.00  35.00   0.00 0       1186.00
  1.00   41.00  49.00  10.00 107.00  140.00
  2.00   35.00  17.00   7.00 940.00  985.00
  3.00   55.00  45.00  13.00 974.00  1007.00
  4.00   55.00  20.00  19.00 589.00  633.00
  5.00   15.00  30.00  26.00 868.00  908.00
  6.00   25.00  30.00   3.00 282.00  313.00
  7.00   20.00  50.00   5.00 185.00  221.00
  8.00   10.00  43.00   9.00  20.00   65.00
  9.00   55.00  60.00  16.00 481.00  526.00
 10.00   30.00  60.00  16.00 437.00  474.00
 11.00   20.00  65.00  12.00 852.00  894.00
 12.00   50.00  35.00  19.00 583.00  621.00
 13.00   30.00  25.00  23.00 414.00  454.00
 14.00   15.00  10.00  20.00 817.00  853.00
 15.00   30.00   5.00   8.00 919.00  949.00
 16.00   10.00  20.00  19.00 1006.00  1045.00
 17.00    5.00  30.00   2.00  47.00   86.00
 18.00   20.00  40.00  12.00  39.00   76.00
 19.00   15.00  60.00  17.00 518.00  556.00
 20.00   45.00  65.00   9.00 371.00  407.00
 21.00   45.00  20.00  11.00 659.00  704.00
 22.00   45.00  10.00  18.00 724.00  769.00
 23.00   55.00   5.00  29.00 674.00  704.00
 24.00   65.00  35.00   3.00 346.00  384.00
 25.00   65.00  20.00   6.00 214.00  251.00
 26.00   45.00  30.00  17.00 344.00  383.00
 27.00   35.00  40.00  16.00 1006.00  1039.00
 28.00   41.00  37.00  16.00 971.00  1007.00
 29.00   64.00  42.00   9.00  21.00   53.00
 30.00   40.00  60.00  21.00 804.00  848.00
 31.00   31.00  52.00  27.00 130.00  160.00
 32.00   35.00  69.00  23.00 401.00  439.00
 33.00   53.00  52.00  11.00 219.00  260.00
 34.00   65.00  55.00  14.00  19.00   53.00
 35.00   63.00  65.00   8.00 412.00  455.00
 36.00    2.00  60.00   5.00 855.00  890.00
 37.00   20.00  20.00   8.00 841.00  881.00
 38.00    5.00   5.00  16.00   8.00   50.00
 39.00   60.00  12.00  31.00 557.00  596.00
 40.00   40.00  25.00   9.00 563.00  596.00
 41.00   42.00   7.00   5.00 1021.00  1058.00
 42.00   24.00  12.00   5.00 192.00  234.00
 43.00   23.00   3.00   7.00 1018.00  1048.00
 44.00   11.00  14.00  18.00 360.00  403.00
 45.00    6.00  38.00  16.00 736.00  767.00
 46.00    2.00  48.00   1.00 924.00  961.00
 47.00    8.00  56.00  27.00 350.00  386.00
 48.00   13.00  52.00  36.00 600.00  631.00
 49.00    6.00  68.00  30.00 706.00  741.00
 50.00   47.00  47.00  13.00 505.00  535.00
 51.00   49.00  58.00  10.00 377.00  412.00
 52.00   27.00  43.00   9.00 879.00  917.00
 53.00   37.00  31.00  14.00 584.00  614.00
 54.00   57.00  29.00  18.00 489.00  525.00
 55.00   63.00  23.00   2.00 973.00  1016.00
 56.00   53.00  12.00   6.00 877.00  914.00
 57.00   32.00  12.00   7.00 515.00  560.00
 58.00   36.00  26.00  18.00 241.00  281.00
 59.00   21.00  24.00  28.00 632.00  671.00
 60.00   17.00  34.00   3.00 753.00  792.00
 61.00   12.00  24.00  13.00  63.00   93.00
 62.00   24.00  58.00  19.00 736.00  771.00
 63.00   27.00  69.00  10.00 370.00  409.00
 64.00   15.00  77.00   9.00 453.00  487.00
 65.00   62.00  77.00  20.00 336.00  370.00
 66.00   49.00  73.00  25.00 784.00  826.00
 67.00   67.00   5.00  25.00 707.00  749.00
 68.00   56.00  39.00  36.00 830.00  861.00
 69.00   37.00  47.00   6.00 447.00  482.00
 70.00   37.00  56.00   5.00 541.00  574.00
 71.00   57.00  68.00  15.00 1009.00  1052.00
 72.00   47.00  16.00  25.00 405.00  440.00
 73.00   44.00  17.00   9.00 380.00  412.00
 74.00   46.00  13.00   8.00 431.00  464.00
 75.00   49.00  11.00  18.00 227.00  271.00
 76.00   49.00  42.00  13.00 364.00  405.00
 77.00   53.00  43.00  14.00  74.00  106.00
 78.00   61.00  52.00   3.00  46.00   76.00
 79.00   57.00  48.00  23.00 109.00  150.00
 80.00   56.00  37.00   6.00 891.00  935.00
 81.00   55.00  54.00  26.00 939.00  979.00
 82.00   15.00  47.00  16.00 942.00  973.00
 83.00   14.00  37.00  11.00 241.00  286.00
 84.00   11.00  31.00   7.00 478.00  516.00
 85.00   16.00  22.00  41.00 321.00  354.00
 86.00    4.00  18.00  35.00 849.00  889.00
 87.00   28.00  18.00  26.00 883.00  928.00
 88.00   26.00  52.00   9.00 303.00  345.00
 89.00   26.00  35.00  15.00 996.00  1034.00
 90.00   31.00  67.00   3.00 379.00  410.00
 91.00   15.00  19.00   1.00 793.00  823.00
 92.00   22.00  22.00   2.00  35.00   71.00
 93.00   18.00  24.00  22.00  23.00   57.00
 94.00   26.00  27.00  27.00 957.00  1001.00
 95.00   25.00  24.00  20.00 638.00  669.00
 96.00   22.00  27.00  11.00 706.00  742.00
 97.00   25.00  21.00  12.00 1006.00  1045.00
 98.00   19.00  21.00  10.00 681.00  712.00
 99.00   20.00  26.00   9.00 525.00  565.00
 100.00  18.00  18.00  17.00 119.00  155.00
Node - number of items - h - w for each item
    0   0
    1   3   11    7    9    5   18    4
    2   3   14    8   19    4   16    3
    3   1    9    4
    4   3    7    9   10    6   16    5
    5   1   14    3
    6   3    5   16    5   11   12    5
    7   2   14    5   16    3
    8   2    4    6   13    3
    9   2   11    8   16    5
   10   1   29    4
   11   2   15    4   28    3
   12   1   25    2
   13   3    5   12   12    7    4    7
   14   2   12    5   10    5
   15   2    8   14   28    3
   16   2    6   11   19    2
   17   1    4    7
   18   2    4   15   10    5
   19   2   12    5   10    4
   20   2    6   11    8    5
   21   2   12    6    5    6
   22   1    6   13
   23   1   13    5
   24   3   24    3   31    2   26    2
   25   2   14    7    9    7
   26   1   10    8
   27   3    5   14   22    4   15    3
   28   2    7   15   21    3
   29   2   13    7   11    6
   30   3    7   12    9    7   27    2
   31   1    6   12
   32   1    5   13
   33   1    4    7
   34   3    6   14   15    8   10    6
   35   3    6   12   10    6   13    3
   36   3    6   11   12    6   23    3
   37   3    7   12    7   11   24    4
   38   3    7   12    6    7   11    5
   39   1    6    6
   40   3    5   15    5   12   24    3
   41   2    6   15    6    9
   42   3    4   10    6    9    7    8
   43   3    4   15   29    4   19    3
   44   3    5   10    4    8   18    4
   45   1    9    8
   46   3   15    6   18    3   22    2
   47   2   15    6   12    6
   48   3    7    9    4    8   24    3
   49   1    6    7
   50   3    5   16   14    8   30    2
   51   2   15    8    9    6
   52   3   15    8    9    7   16    4
   53   3   13    6   21    2   14    2
   54   1    8   10
   55   3   13    5   15    4   20    3
   56   2    6   11   25    4
   57   2    5   12    6   10
   58   2    8   14   12    6
   59   3   12    7   11    4   30    3
   60   1   14    7
   61   1    5   14
   62   2    4   16    9    6
   63   1   16    4
   64   3    4    9   15    6   14    6
   65   2   23    4   19    4
   66   2    7   15   29    3
   67   2   14    5   22    2
   68   3    8   11   12    6   29    3
   69   2   13    6   17    4
   70   2    5   14    9    7
   71   3    6    8   11    4   22    3
   72   1   15    3
   73   2    5   11    9    6
   74   2    5   14   12    4
   75   3    5   14    6    7   31    3
   76   2   16    8   16    3
   77   2    7   11   13    4
   78   1   29    2
   79   1   14    5
   80   3    5    8    9    4   20    2
   81   3    5    8   28    3   26    3
   82   1    9    4
   83   2    8   10   16    4
   84   1    7    9
   85   2   11    6   27    3
   86   3    6   13    8   12   12    4
   87   3   12    6   11    4   17    3
   88   2   13    7   21    3
   89   1   13    7
   90   2    8    6   22    4
   91   2   13    6   22    2
   92   3    5    8    5    7   15    3
   93   2    4   14   14    6
   94   3    9    8   30    4   16    4
   95   3    4    8   16    7   14    5
   96   2    6   13   18    2
   97   2    6   12   11    7
   98   2    6   14   12    8
   99   3    6   16   11    6   13    5
  100   2    7   16   16    3
